10J3M/DAT/10J3MUNL-9.dat
10 3
37.6964 37.6964
4.09 4.09
8.2812 8.2812
18.8991 18.8991
19.4218 19.4218
15.9621 15.9621
33.9822 33.9822
45.6045 45.6045
48.6092 48.6092
47.4723 47.4723
280.0188