10J3M/SOL/10J3MUNL-9.sol
solution status: optimal solution found
objective value:                              93.3396
x#1#1                                0.73122101845269 	(obj:0)
x#1#2                                0.26877898154731 	(obj:0)
x#2#1                                               1 	(obj:0)
x#3#1                                               1 	(obj:0)
x#4#2                                               1 	(obj:0)
x#5#1                                               1 	(obj:0)
x#6#2                                               1 	(obj:0)
x#7#1                                               1 	(obj:0)
x#8#2                                               1 	(obj:0)
x#9#3                                               1 	(obj:0)
x#10#2                             0.0577578924973088 	(obj:0)
x#10#3                              0.942242107502691 	(obj:0)
z                                             93.3396 	(obj:1)
